p wcnf 174 261 262 
1 54 -105 0 
1 168 -104 0 
1 -60 -106 0 
1 -23 174 0 
1 -109 -43 0 
1 -82 142 0 
1 -45 70 0 
1 149 -7 0 
1 -160 -174 0 
1 17 9 0 
1 -97 -69 0 
1 -143 113 0 
1 36 -130 0 
1 138 83 0 
1 -9 38 0 
1 -114 -48 0 
1 7 137 0 
1 161 -42 0 
1 -78 23 0 
1 -66 127 0 
1 -27 48 0 
1 102 -116 0 
1 -74 -146 0 
1 -75 129 0 
1 16 -29 0 
1 126 83 0 
1 -119 139 0 
1 80 163 0 
1 -136 -56 0 
1 -107 -38 0 
1 149 96 0 
1 -116 136 0 
1 86 95 0 
1 27 85 0 
1 -29 -3 0 
1 107 -130 0 
1 -89 -15 0 
1 160 -119 0 
1 -153 23 0 
1 110 -22 0 
1 40 113 0 
1 49 55 0 
1 -76 -147 0 
1 -94 39 0 
1 -108 -153 0 
1 96 136 0 
1 66 62 0 
1 -41 122 0 
1 87 48 0 
1 11 -20 0 
1 170 -4 0 
1 53 81 0 
1 162 -105 0 
1 -11 17 0 
1 -29 174 0 
1 -103 -54 0 
1 -134 100 0 
1 -125 73 0 
1 66 -151 0 
1 -159 13 0 
1 -96 -66 0 
1 109 94 0 
1 -163 149 0 
1 88 155 0 
1 144 106 0 
1 21 -30 0 
1 -98 12 0 
1 166 -51 0 
1 -162 -28 0 
1 -169 155 0 
1 166 127 0 
1 -43 -68 0 
1 17 78 0 
1 83 -134 0 
1 -32 95 0 
1 -139 32 0 
1 -37 87 0 
1 110 -99 0 
1 148 61 0 
1 28 -70 0 
1 -66 7 0 
1 102 -25 0 
1 77 19 0 
1 57 -79 0 
1 -35 152 0 
1 -139 67 0 
1 -13 -66 0 
1 -77 -104 0 
1 126 50 0 
1 67 -53 0 
1 51 134 0 
1 89 155 0 
1 56 -11 0 
1 -86 -173 0 
1 -69 -171 0 
1 -119 169 0 
1 -53 92 0 
1 94 -129 0 
1 -70 -82 0 
1 -11 116 0 
1 -24 -159 0 
1 82 117 0 
1 -95 -79 0 
1 137 -118 0 
1 -92 32 0 
1 124 8 0 
1 22 -29 0 
1 169 -30 0 
1 -20 -46 0 
1 130 33 0 
1 123 150 0 
1 74 161 0 
1 13 -104 0 
1 152 -100 0 
1 19 114 0 
1 105 136 0 
1 -121 39 0 
1 -165 169 0 
1 -44 -155 0 
1 161 -114 0 
1 -107 -131 0 
1 44 -36 0 
1 127 -92 0 
1 -19 -172 0 
1 -143 -147 0 
1 162 -90 0 
1 -120 168 0 
1 -162 101 0 
1 149 -170 0 
1 -92 -123 0 
1 169 -45 0 
1 -31 -64 0 
1 38 -86 0 
1 -146 131 0 
1 -119 5 0 
1 119 -141 0 
1 -120 28 0 
1 -81 -174 0 
1 -6 47 0 
1 -59 97 0 
1 164 121 0 
1 87 7 0 
1 9 -52 0 
1 -44 -8 0 
1 152 82 0 
1 -135 -52 0 
1 162 -108 0 
1 -80 67 0 
1 142 -8 0 
1 138 29 0 
1 -11 131 0 
1 -83 -125 0 
1 -16 -148 0 
1 49 -44 0 
1 -94 40 0 
1 174 33 0 
1 126 168 0 
1 51 -83 0 
1 -5 113 0 
1 110 -82 0 
1 -117 -99 0 
1 -156 141 0 
1 77 -92 0 
1 -8 163 0 
1 59 52 0 
1 -82 118 0 
1 -3 -84 0 
1 -45 9 0 
1 40 -110 0 
1 -44 -63 0 
1 7 14 0 
1 77 68 0 
1 105 -70 0 
1 58 -10 0 
1 -140 -82 0 
1 -47 -118 0 
1 -102 -154 0 
1 -155 -88 0 
1 -91 161 0 
1 67 -135 0 
1 -93 138 0 
1 23 71 0 
1 148 -71 0 
1 -31 149 0 
1 -38 -167 0 
1 31 8 0 
1 -78 79 0 
1 -63 167 0 
1 64 -29 0 
1 -49 -22 0 
1 -122 85 0 
1 100 -65 0 
1 -1 -133 0 
1 -152 -24 0 
1 96 154 0 
1 72 -36 0 
1 -72 -153 0 
1 -118 -16 0 
1 18 -166 0 
1 -97 -78 0 
1 -130 133 0 
1 -52 -67 0 
1 139 -115 0 
1 169 -75 0 
1 100 -58 0 
1 -123 -39 0 
1 164 -38 0 
1 146 158 0 
1 95 -161 0 
1 14 18 0 
1 -116 -79 0 
1 -14 -121 0 
1 7 -104 0 
1 -173 138 0 
1 -55 -2 0 
1 71 153 0 
1 90 -34 0 
1 -167 50 0 
1 -122 74 0 
1 18 -44 0 
1 -154 -41 0 
1 69 96 0 
1 71 -170 0 
1 -71 -76 0 
1 -24 142 0 
1 166 -133 0 
1 41 56 0 
1 125 -48 0 
1 160 -1 0 
1 14 128 0 
1 78 -143 0 
1 44 103 0 
1 -138 -74 0 
1 169 15 0 
1 -49 -66 0 
1 98 -17 0 
1 166 157 0 
1 57 -86 0 
1 36 -109 0 
1 56 7 0 
1 6 -67 0 
1 74 -163 0 
1 113 -26 0 
1 -124 167 0 
1 -34 152 0 
1 107 -54 0 
1 107 161 0 
1 89 -69 0 
1 -160 154 0 
1 164 41 0 
1 106 161 0 
1 -40 -34 0 
1 25 24 0 
1 -28 126 0 
1 -135 39 0 
1 12 -37 0 
1 -97 -146 0 
1 -124 140 0 
1 -160 25 0 
1 26 -166 0 
1 95 -164 0 
